5 5
4 22 3 85 0 29 1 45 2 46
0 39 4 69 2 78 1 82 3 68
1 97 4 39 3 20 2 77 0 68
1 35 2 8 3 52 0 40 4 36
1 6 0 86 2 70 4 73 3 16
-1
0 1 2 4 5
0 1 2 4 5
0 2 3 4 5
0 1 2 4 5
0 3 5
-2
34 137 249 285
53 172 399 344
165 174 284 339
49 51 184 176
197 352

401 9
5 21 2 18 14
20 15 10 8 3
16 7 22 13 4
1 17 12 9 24
0 6 11 23 19
